========================================================== 
File name: C:\DEGR\assets\definitions\MSRCPSP_Gen\100_5_64_10_C.def
Creation date: Wed May 03 10:37:13 CEST 2023
Website: http://imopse.ii.pwr.edu.pl/ 
Reference: 
Myszkowski P. B., Skowronski M. E., Olech L., Oslizlo K., 
Hybrid Ant Colony Optimization in solving Multi-Skill Resource-Constrained Project Scheduling Problem, 
Soft Computing, DOI: DOI 10.1007/s00500-014-1455-x 
========================================================== 
General characteristics: 
Tasks: 100
Resources: 5
Precedence relations: 62
Number of skill types: 10
========================================================== 
ResourceID 	 Salary 	 Skills 
1	 	 	99.2	 	 Q1: 1 	  Q4: 1 	  Q6: 2 	  Q7: 3 	  Q5: 2 	  Q2: 2 	 
2	 	 	60.9	 	 Q0: 2 	  Q8: 1 	 
3	 	 	99.8	 	 Q0: 3 	  Q3: 1 	  Q7: 2 	  Q5: 1 	  Q1: 0 	  Q6: 3 	  Q8: 0 	  Q9: 3 	 
4	 	 	22.7	 	 Q8: 0 	  Q5: 0 	  Q3: 0 	 
5	 	 	31.3	 	 Q1: 1 	  Q8: 3 	  Q2: 2 	  Q3: 3 	  Q9: 2 	  Q5: 2 	  Q4: 3 	  Q0: 0 	  Q7: 0 	 
========================================================== 
TaskID 	 Duration 	 Skill 	 Predecessor IDs 
1	26	Q9:	2
2	25	Q3:	0
3	20	Q9:	2
4	19	Q4:	1
5	25	Q8:	1
6	33	Q4:	1
7	25	Q8:	3
8	31	Q4:	3
9	24	Q5:	1
10	22	Q8:	3
11	32	Q7:	2
12	24	Q8:	0
13	13	Q5:	1
14	20	Q7:	2	8
15	36	Q6:	2	5
16	22	Q3:	0
17	24	Q5:	0
18	33	Q1:	1	14
19	15	Q9:	3
20	10	Q7:	0
21	31	Q5:	1
22	13	Q9:	3
23	17	Q0:	2
24	35	Q0:	0	18
25	37	Q8:	3	9
26	9	Q7:	3
27	26	Q0:	3
28	22	Q6:	3
29	17	Q6:	2
30	24	Q2:	2	27
31	29	Q4:	3	12
32	38	Q4:	3	26
33	21	Q2:	2
34	30	Q9:	3	24
35	13	Q8:	1
36	35	Q1:	1	2
37	32	Q8:	3	12
38	38	Q1:	1
39	9	Q5:	0
40	26	Q8:	3
41	40	Q3:	3	40	24
42	22	Q7:	0	41	24
43	13	Q5:	0
44	39	Q5:	1
45	32	Q3:	3
46	16	Q9:	2	9
47	23	Q6:	2
48	30	Q0:	2	2	19
49	27	Q5:	1	42
50	35	Q0:	0
51	19	Q8:	0
52	11	Q3:	3	31
53	24	Q5:	1
54	15	Q1:	0	1	25
55	31	Q9:	2	35
56	34	Q5:	2	53
57	22	Q4:	3
58	25	Q3:	0
59	12	Q3:	1	43
60	37	Q2:	2	16	24	44
61	17	Q5:	0	49
62	16	Q7:	3
63	31	Q9:	3
64	32	Q9:	2	8	11
65	35	Q8:	3	47
66	35	Q7:	3	44
67	14	Q7:	0	4	64
68	32	Q7:	3
69	18	Q8:	0
70	30	Q6:	3	51	29
71	17	Q0:	2	65	44
72	32	Q3:	0
73	13	Q6:	2
74	17	Q8:	1
75	29	Q3:	1	37
76	36	Q3:	3
77	25	Q0:	3	11
78	18	Q1:	0
79	17	Q7:	2
80	29	Q5:	2	3
81	9	Q5:	2	66
82	33	Q4:	3
83	13	Q9:	3	2	23
84	32	Q6:	2	42
85	13	Q8:	1	56	16
86	25	Q5:	1	64
87	15	Q7:	3	12	25
88	12	Q5:	2
89	17	Q0:	2
90	25	Q5:	1
91	30	Q2:	2	84	18
92	10	Q5:	2
93	30	Q3:	0	80	64
94	16	Q1:	1
95	16	Q4:	1	51
96	37	Q3:	1
97	36	Q8:	0	47	88
98	32	Q7:	0	8	1
99	23	Q6:	2
100	16	Q9:	2	39	84
========================================================== 